(declare-fun f (Int) Int)
(assert (not (= (f 0) (f 1))))
(assert (not (= (f 0) (f 2))))
(assert (not (= (f 0) (f 3))))
(assert (not (= (f 0) (f 4))))
(assert (not (= (f 0) (f 5))))
(assert (not (= (f 0) (f 6))))
(assert (not (= (f 0) (f 7))))
(assert (not (= (f 0) (f 8))))
(assert (not (= (f 0) (f 9))))
(assert (not (= (f 0) (f 10))))
(assert (not (= (f 0) (f 11))))
(assert (not (= (f 0) (f 12))))
(assert (not (= (f 0) (f 13))))
(assert (not (= (f 0) (f 14))))
(assert (not (= (f 0) (f 15))))
(assert (not (= (f 0) (f 16))))
(assert (not (= (f 0) (f 17))))
(assert (not (= (f 0) (f 18))))
(assert (not (= (f 0) (f 19))))
(assert (not (= (f 0) (f 20))))
(assert (not (= (f 0) (f 21))))
(assert (not (= (f 0) (f 22))))
(assert (not (= (f 0) (f 23))))
(assert (not (= (f 0) (f 24))))
(assert (not (= (f 0) (f 25))))
(assert (not (= (f 0) (f 26))))
(assert (not (= (f 0) (f 27))))
(assert (not (= (f 0) (f 28))))
(assert (not (= (f 0) (f 29))))
(assert (not (= (f 0) (f 30))))
(assert (not (= (f 0) (f 31))))
(assert (not (= (f 1) (f 0))))
(assert (not (= (f 1) (f 2))))
(assert (not (= (f 1) (f 3))))
(assert (not (= (f 1) (f 4))))
(assert (not (= (f 1) (f 5))))
(assert (not (= (f 1) (f 6))))
(assert (not (= (f 1) (f 7))))
(assert (not (= (f 1) (f 8))))
(assert (not (= (f 1) (f 9))))
(assert (not (= (f 1) (f 10))))
(assert (not (= (f 1) (f 11))))
(assert (not (= (f 1) (f 12))))
(assert (not (= (f 1) (f 13))))
(assert (not (= (f 1) (f 14))))
(assert (not (= (f 1) (f 15))))
(assert (not (= (f 1) (f 16))))
(assert (not (= (f 1) (f 17))))
(assert (not (= (f 1) (f 18))))
(assert (not (= (f 1) (f 19))))
(assert (not (= (f 1) (f 20))))
(assert (not (= (f 1) (f 21))))
(assert (not (= (f 1) (f 22))))
(assert (not (= (f 1) (f 23))))
(assert (not (= (f 1) (f 24))))
(assert (not (= (f 1) (f 25))))
(assert (not (= (f 1) (f 26))))
(assert (not (= (f 1) (f 27))))
(assert (not (= (f 1) (f 28))))
(assert (not (= (f 1) (f 29))))
(assert (not (= (f 1) (f 30))))
(assert (not (= (f 1) (f 31))))
(assert (not (= (f 2) (f 0))))
(assert (not (= (f 2) (f 1))))
(assert (not (= (f 2) (f 3))))
(assert (not (= (f 2) (f 4))))
(assert (not (= (f 2) (f 5))))
(assert (not (= (f 2) (f 6))))
(assert (not (= (f 2) (f 7))))
(assert (not (= (f 2) (f 8))))
(assert (not (= (f 2) (f 9))))
(assert (not (= (f 2) (f 10))))
(assert (not (= (f 2) (f 11))))
(assert (not (= (f 2) (f 12))))
(assert (not (= (f 2) (f 13))))
(assert (not (= (f 2) (f 14))))
(assert (not (= (f 2) (f 15))))
(assert (not (= (f 2) (f 16))))
(assert (not (= (f 2) (f 17))))
(assert (not (= (f 2) (f 18))))
(assert (not (= (f 2) (f 19))))
(assert (not (= (f 2) (f 20))))
(assert (not (= (f 2) (f 21))))
(assert (not (= (f 2) (f 22))))
(assert (not (= (f 2) (f 23))))
(assert (not (= (f 2) (f 24))))
(assert (not (= (f 2) (f 25))))
(assert (not (= (f 2) (f 26))))
(assert (not (= (f 2) (f 27))))
(assert (not (= (f 2) (f 28))))
(assert (not (= (f 2) (f 29))))
(assert (not (= (f 2) (f 30))))
(assert (not (= (f 2) (f 31))))
(assert (not (= (f 3) (f 0))))
(assert (not (= (f 3) (f 1))))
(assert (not (= (f 3) (f 2))))
(assert (not (= (f 3) (f 4))))
(assert (not (= (f 3) (f 5))))
(assert (not (= (f 3) (f 6))))
(assert (not (= (f 3) (f 7))))
(assert (not (= (f 3) (f 8))))
(assert (not (= (f 3) (f 9))))
(assert (not (= (f 3) (f 10))))
(assert (not (= (f 3) (f 11))))
(assert (not (= (f 3) (f 12))))
(assert (not (= (f 3) (f 13))))
(assert (not (= (f 3) (f 14))))
(assert (not (= (f 3) (f 15))))
(assert (not (= (f 3) (f 16))))
(assert (not (= (f 3) (f 17))))
(assert (not (= (f 3) (f 18))))
(assert (not (= (f 3) (f 19))))
(assert (not (= (f 3) (f 20))))
(assert (not (= (f 3) (f 21))))
(assert (not (= (f 3) (f 22))))
(assert (not (= (f 3) (f 23))))
(assert (not (= (f 3) (f 24))))
(assert (not (= (f 3) (f 25))))
(assert (not (= (f 3) (f 26))))
(assert (not (= (f 3) (f 27))))
(assert (not (= (f 3) (f 28))))
(assert (not (= (f 3) (f 29))))
(assert (not (= (f 3) (f 30))))
(assert (not (= (f 3) (f 31))))
(assert (not (= (f 4) (f 0))))
(assert (not (= (f 4) (f 1))))
(assert (not (= (f 4) (f 2))))
(assert (not (= (f 4) (f 3))))
(assert (not (= (f 4) (f 5))))
(assert (not (= (f 4) (f 6))))
(assert (not (= (f 4) (f 7))))
(assert (not (= (f 4) (f 8))))
(assert (not (= (f 4) (f 9))))
(assert (not (= (f 4) (f 10))))
(assert (not (= (f 4) (f 11))))
(assert (not (= (f 4) (f 12))))
(assert (not (= (f 4) (f 13))))
(assert (not (= (f 4) (f 14))))
(assert (not (= (f 4) (f 15))))
(assert (not (= (f 4) (f 16))))
(assert (not (= (f 4) (f 17))))
(assert (not (= (f 4) (f 18))))
(assert (not (= (f 4) (f 19))))
(assert (not (= (f 4) (f 20))))
(assert (not (= (f 4) (f 21))))
(assert (not (= (f 4) (f 22))))
(assert (not (= (f 4) (f 23))))
(assert (not (= (f 4) (f 24))))
(assert (not (= (f 4) (f 25))))
(assert (not (= (f 4) (f 26))))
(assert (not (= (f 4) (f 27))))
(assert (not (= (f 4) (f 28))))
(assert (not (= (f 4) (f 29))))
(assert (not (= (f 4) (f 30))))
(assert (not (= (f 4) (f 31))))
(assert (not (= (f 5) (f 0))))
(assert (not (= (f 5) (f 1))))
(assert (not (= (f 5) (f 2))))
(assert (not (= (f 5) (f 3))))
(assert (not (= (f 5) (f 4))))
(assert (not (= (f 5) (f 6))))
(assert (not (= (f 5) (f 7))))
(assert (not (= (f 5) (f 8))))
(assert (not (= (f 5) (f 9))))
(assert (not (= (f 5) (f 10))))
(assert (not (= (f 5) (f 11))))
(assert (not (= (f 5) (f 12))))
(assert (not (= (f 5) (f 13))))
(assert (not (= (f 5) (f 14))))
(assert (not (= (f 5) (f 15))))
(assert (not (= (f 5) (f 16))))
(assert (not (= (f 5) (f 17))))
(assert (not (= (f 5) (f 18))))
(assert (not (= (f 5) (f 19))))
(assert (not (= (f 5) (f 20))))
(assert (not (= (f 5) (f 21))))
(assert (not (= (f 5) (f 22))))
(assert (not (= (f 5) (f 23))))
(assert (not (= (f 5) (f 24))))
(assert (not (= (f 5) (f 25))))
(assert (not (= (f 5) (f 26))))
(assert (not (= (f 5) (f 27))))
(assert (not (= (f 5) (f 28))))
(assert (not (= (f 5) (f 29))))
(assert (not (= (f 5) (f 30))))
(assert (not (= (f 5) (f 31))))
(assert (not (= (f 6) (f 0))))
(assert (not (= (f 6) (f 1))))
(assert (not (= (f 6) (f 2))))
(assert (not (= (f 6) (f 3))))
(assert (not (= (f 6) (f 4))))
(assert (not (= (f 6) (f 5))))
(assert (not (= (f 6) (f 7))))
(assert (not (= (f 6) (f 8))))
(assert (not (= (f 6) (f 9))))
(assert (not (= (f 6) (f 10))))
(assert (not (= (f 6) (f 11))))
(assert (not (= (f 6) (f 12))))
(assert (not (= (f 6) (f 13))))
(assert (not (= (f 6) (f 14))))
(assert (not (= (f 6) (f 15))))
(assert (not (= (f 6) (f 16))))
(assert (not (= (f 6) (f 17))))
(assert (not (= (f 6) (f 18))))
(assert (not (= (f 6) (f 19))))
(assert (not (= (f 6) (f 20))))
(assert (not (= (f 6) (f 21))))
(assert (not (= (f 6) (f 22))))
(assert (not (= (f 6) (f 23))))
(assert (not (= (f 6) (f 24))))
(assert (not (= (f 6) (f 25))))
(assert (not (= (f 6) (f 26))))
(assert (not (= (f 6) (f 27))))
(assert (not (= (f 6) (f 28))))
(assert (not (= (f 6) (f 29))))
(assert (not (= (f 6) (f 30))))
(assert (not (= (f 6) (f 31))))
(assert (not (= (f 7) (f 0))))
(assert (not (= (f 7) (f 1))))
(assert (not (= (f 7) (f 2))))
(assert (not (= (f 7) (f 3))))
(assert (not (= (f 7) (f 4))))
(assert (not (= (f 7) (f 5))))
(assert (not (= (f 7) (f 6))))
(assert (not (= (f 7) (f 8))))
(assert (not (= (f 7) (f 9))))
(assert (not (= (f 7) (f 10))))
(assert (not (= (f 7) (f 11))))
(assert (not (= (f 7) (f 12))))
(assert (not (= (f 7) (f 13))))
(assert (not (= (f 7) (f 14))))
(assert (not (= (f 7) (f 15))))
(assert (not (= (f 7) (f 16))))
(assert (not (= (f 7) (f 17))))
(assert (not (= (f 7) (f 18))))
(assert (not (= (f 7) (f 19))))
(assert (not (= (f 7) (f 20))))
(assert (not (= (f 7) (f 21))))
(assert (not (= (f 7) (f 22))))
(assert (not (= (f 7) (f 23))))
(assert (not (= (f 7) (f 24))))
(assert (not (= (f 7) (f 25))))
(assert (not (= (f 7) (f 26))))
(assert (not (= (f 7) (f 27))))
(assert (not (= (f 7) (f 28))))
(assert (not (= (f 7) (f 29))))
(assert (not (= (f 7) (f 30))))
(assert (not (= (f 7) (f 31))))
(assert (not (= (f 8) (f 0))))
(assert (not (= (f 8) (f 1))))
(assert (not (= (f 8) (f 2))))
(assert (not (= (f 8) (f 3))))
(assert (not (= (f 8) (f 4))))
(assert (not (= (f 8) (f 5))))
(assert (not (= (f 8) (f 6))))
(assert (not (= (f 8) (f 7))))
(assert (not (= (f 8) (f 9))))
(assert (not (= (f 8) (f 10))))
(assert (not (= (f 8) (f 11))))
(assert (not (= (f 8) (f 12))))
(assert (not (= (f 8) (f 13))))
(assert (not (= (f 8) (f 14))))
(assert (not (= (f 8) (f 15))))
(assert (not (= (f 8) (f 16))))
(assert (not (= (f 8) (f 17))))
(assert (not (= (f 8) (f 18))))
(assert (not (= (f 8) (f 19))))
(assert (not (= (f 8) (f 20))))
(assert (not (= (f 8) (f 21))))
(assert (not (= (f 8) (f 22))))
(assert (not (= (f 8) (f 23))))
(assert (not (= (f 8) (f 24))))
(assert (not (= (f 8) (f 25))))
(assert (not (= (f 8) (f 26))))
(assert (not (= (f 8) (f 27))))
(assert (not (= (f 8) (f 28))))
(assert (not (= (f 8) (f 29))))
(assert (not (= (f 8) (f 30))))
(assert (not (= (f 8) (f 31))))
(assert (not (= (f 9) (f 0))))
(assert (not (= (f 9) (f 1))))
(assert (not (= (f 9) (f 2))))
(assert (not (= (f 9) (f 3))))
(assert (not (= (f 9) (f 4))))
(assert (not (= (f 9) (f 5))))
(assert (not (= (f 9) (f 6))))
(assert (not (= (f 9) (f 7))))
(assert (not (= (f 9) (f 8))))
(assert (not (= (f 9) (f 10))))
(assert (not (= (f 9) (f 11))))
(assert (not (= (f 9) (f 12))))
(assert (not (= (f 9) (f 13))))
(assert (not (= (f 9) (f 14))))
(assert (not (= (f 9) (f 15))))
(assert (not (= (f 9) (f 16))))
(assert (not (= (f 9) (f 17))))
(assert (not (= (f 9) (f 18))))
(assert (not (= (f 9) (f 19))))
(assert (not (= (f 9) (f 20))))
(assert (not (= (f 9) (f 21))))
(assert (not (= (f 9) (f 22))))
(assert (not (= (f 9) (f 23))))
(assert (not (= (f 9) (f 24))))
(assert (not (= (f 9) (f 25))))
(assert (not (= (f 9) (f 26))))
(assert (not (= (f 9) (f 27))))
(assert (not (= (f 9) (f 28))))
(assert (not (= (f 9) (f 29))))
(assert (not (= (f 9) (f 30))))
(assert (not (= (f 9) (f 31))))
(assert (not (= (f 10) (f 0))))
(assert (not (= (f 10) (f 1))))
(assert (not (= (f 10) (f 2))))
(assert (not (= (f 10) (f 3))))
(assert (not (= (f 10) (f 4))))
(assert (not (= (f 10) (f 5))))
(assert (not (= (f 10) (f 6))))
(assert (not (= (f 10) (f 7))))
(assert (not (= (f 10) (f 8))))
(assert (not (= (f 10) (f 9))))
(assert (not (= (f 10) (f 11))))
(assert (not (= (f 10) (f 12))))
(assert (not (= (f 10) (f 13))))
(assert (not (= (f 10) (f 14))))
(assert (not (= (f 10) (f 15))))
(assert (not (= (f 10) (f 16))))
(assert (not (= (f 10) (f 17))))
(assert (not (= (f 10) (f 18))))
(assert (not (= (f 10) (f 19))))
(assert (not (= (f 10) (f 20))))
(assert (not (= (f 10) (f 21))))
(assert (not (= (f 10) (f 22))))
(assert (not (= (f 10) (f 23))))
(assert (not (= (f 10) (f 24))))
(assert (not (= (f 10) (f 25))))
(assert (not (= (f 10) (f 26))))
(assert (not (= (f 10) (f 27))))
(assert (not (= (f 10) (f 28))))
(assert (not (= (f 10) (f 29))))
(assert (not (= (f 10) (f 30))))
(assert (not (= (f 10) (f 31))))
(assert (not (= (f 11) (f 0))))
(assert (not (= (f 11) (f 1))))
(assert (not (= (f 11) (f 2))))
(assert (not (= (f 11) (f 3))))
(assert (not (= (f 11) (f 4))))
(assert (not (= (f 11) (f 5))))
(assert (not (= (f 11) (f 6))))
(assert (not (= (f 11) (f 7))))
(assert (not (= (f 11) (f 8))))
(assert (not (= (f 11) (f 9))))
(assert (not (= (f 11) (f 10))))
(assert (not (= (f 11) (f 12))))
(assert (not (= (f 11) (f 13))))
(assert (not (= (f 11) (f 14))))
(assert (not (= (f 11) (f 15))))
(assert (not (= (f 11) (f 16))))
(assert (not (= (f 11) (f 17))))
(assert (not (= (f 11) (f 18))))
(assert (not (= (f 11) (f 19))))
(assert (not (= (f 11) (f 20))))
(assert (not (= (f 11) (f 21))))
(assert (not (= (f 11) (f 22))))
(assert (not (= (f 11) (f 23))))
(assert (not (= (f 11) (f 24))))
(assert (not (= (f 11) (f 25))))
(assert (not (= (f 11) (f 26))))
(assert (not (= (f 11) (f 27))))
(assert (not (= (f 11) (f 28))))
(assert (not (= (f 11) (f 29))))
(assert (not (= (f 11) (f 30))))
(assert (not (= (f 11) (f 31))))
(assert (not (= (f 12) (f 0))))
(assert (not (= (f 12) (f 1))))
(assert (not (= (f 12) (f 2))))
(assert (not (= (f 12) (f 3))))
(assert (not (= (f 12) (f 4))))
(assert (not (= (f 12) (f 5))))
(assert (not (= (f 12) (f 6))))
(assert (not (= (f 12) (f 7))))
(assert (not (= (f 12) (f 8))))
(assert (not (= (f 12) (f 9))))
(assert (not (= (f 12) (f 10))))
(assert (not (= (f 12) (f 11))))
(assert (not (= (f 12) (f 13))))
(assert (not (= (f 12) (f 14))))
(assert (not (= (f 12) (f 15))))
(assert (not (= (f 12) (f 16))))
(assert (not (= (f 12) (f 17))))
(assert (not (= (f 12) (f 18))))
(assert (not (= (f 12) (f 19))))
(assert (not (= (f 12) (f 20))))
(assert (not (= (f 12) (f 21))))
(assert (not (= (f 12) (f 22))))
(assert (not (= (f 12) (f 23))))
(assert (not (= (f 12) (f 24))))
(assert (not (= (f 12) (f 25))))
(assert (not (= (f 12) (f 26))))
(assert (not (= (f 12) (f 27))))
(assert (not (= (f 12) (f 28))))
(assert (not (= (f 12) (f 29))))
(assert (not (= (f 12) (f 30))))
(assert (not (= (f 12) (f 31))))
(assert (not (= (f 13) (f 0))))
(assert (not (= (f 13) (f 1))))
(assert (not (= (f 13) (f 2))))
(assert (not (= (f 13) (f 3))))
(assert (not (= (f 13) (f 4))))
(assert (not (= (f 13) (f 5))))
(assert (not (= (f 13) (f 6))))
(assert (not (= (f 13) (f 7))))
(assert (not (= (f 13) (f 8))))
(assert (not (= (f 13) (f 9))))
(assert (not (= (f 13) (f 10))))
(assert (not (= (f 13) (f 11))))
(assert (not (= (f 13) (f 12))))
(assert (not (= (f 13) (f 14))))
(assert (not (= (f 13) (f 15))))
(assert (not (= (f 13) (f 16))))
(assert (not (= (f 13) (f 17))))
(assert (not (= (f 13) (f 18))))
(assert (not (= (f 13) (f 19))))
(assert (not (= (f 13) (f 20))))
(assert (not (= (f 13) (f 21))))
(assert (not (= (f 13) (f 22))))
(assert (not (= (f 13) (f 23))))
(assert (not (= (f 13) (f 24))))
(assert (not (= (f 13) (f 25))))
(assert (not (= (f 13) (f 26))))
(assert (not (= (f 13) (f 27))))
(assert (not (= (f 13) (f 28))))
(assert (not (= (f 13) (f 29))))
(assert (not (= (f 13) (f 30))))
(assert (not (= (f 13) (f 31))))
(assert (not (= (f 14) (f 0))))
(assert (not (= (f 14) (f 1))))
(assert (not (= (f 14) (f 2))))
(assert (not (= (f 14) (f 3))))
(assert (not (= (f 14) (f 4))))
(assert (not (= (f 14) (f 5))))
(assert (not (= (f 14) (f 6))))
(assert (not (= (f 14) (f 7))))
(assert (not (= (f 14) (f 8))))
(assert (not (= (f 14) (f 9))))
(assert (not (= (f 14) (f 10))))
(assert (not (= (f 14) (f 11))))
(assert (not (= (f 14) (f 12))))
(assert (not (= (f 14) (f 13))))
(assert (not (= (f 14) (f 15))))
(assert (not (= (f 14) (f 16))))
(assert (not (= (f 14) (f 17))))
(assert (not (= (f 14) (f 18))))
(assert (not (= (f 14) (f 19))))
(assert (not (= (f 14) (f 20))))
(assert (not (= (f 14) (f 21))))
(assert (not (= (f 14) (f 22))))
(assert (not (= (f 14) (f 23))))
(assert (not (= (f 14) (f 24))))
(assert (not (= (f 14) (f 25))))
(assert (not (= (f 14) (f 26))))
(assert (not (= (f 14) (f 27))))
(assert (not (= (f 14) (f 28))))
(assert (not (= (f 14) (f 29))))
(assert (not (= (f 14) (f 30))))
(assert (not (= (f 14) (f 31))))
(assert (not (= (f 15) (f 0))))
(assert (not (= (f 15) (f 1))))
(assert (not (= (f 15) (f 2))))
(assert (not (= (f 15) (f 3))))
(assert (not (= (f 15) (f 4))))
(assert (not (= (f 15) (f 5))))
(assert (not (= (f 15) (f 6))))
(assert (not (= (f 15) (f 7))))
(assert (not (= (f 15) (f 8))))
(assert (not (= (f 15) (f 9))))
(assert (not (= (f 15) (f 10))))
(assert (not (= (f 15) (f 11))))
(assert (not (= (f 15) (f 12))))
(assert (not (= (f 15) (f 13))))
(assert (not (= (f 15) (f 14))))
(assert (not (= (f 15) (f 16))))
(assert (not (= (f 15) (f 17))))
(assert (not (= (f 15) (f 18))))
(assert (not (= (f 15) (f 19))))
(assert (not (= (f 15) (f 20))))
(assert (not (= (f 15) (f 21))))
(assert (not (= (f 15) (f 22))))
(assert (not (= (f 15) (f 23))))
(assert (not (= (f 15) (f 24))))
(assert (not (= (f 15) (f 25))))
(assert (not (= (f 15) (f 26))))
(assert (not (= (f 15) (f 27))))
(assert (not (= (f 15) (f 28))))
(assert (not (= (f 15) (f 29))))
(assert (not (= (f 15) (f 30))))
(assert (not (= (f 15) (f 31))))
(assert (not (= (f 16) (f 0))))
(assert (not (= (f 16) (f 1))))
(assert (not (= (f 16) (f 2))))
(assert (not (= (f 16) (f 3))))
(assert (not (= (f 16) (f 4))))
(assert (not (= (f 16) (f 5))))
(assert (not (= (f 16) (f 6))))
(assert (not (= (f 16) (f 7))))
(assert (not (= (f 16) (f 8))))
(assert (not (= (f 16) (f 9))))
(assert (not (= (f 16) (f 10))))
(assert (not (= (f 16) (f 11))))
(assert (not (= (f 16) (f 12))))
(assert (not (= (f 16) (f 13))))
(assert (not (= (f 16) (f 14))))
(assert (not (= (f 16) (f 15))))
(assert (not (= (f 16) (f 17))))
(assert (not (= (f 16) (f 18))))
(assert (not (= (f 16) (f 19))))
(assert (not (= (f 16) (f 20))))
(assert (not (= (f 16) (f 21))))
(assert (not (= (f 16) (f 22))))
(assert (not (= (f 16) (f 23))))
(assert (not (= (f 16) (f 24))))
(assert (not (= (f 16) (f 25))))
(assert (not (= (f 16) (f 26))))
(assert (not (= (f 16) (f 27))))
(assert (not (= (f 16) (f 28))))
(assert (not (= (f 16) (f 29))))
(assert (not (= (f 16) (f 30))))
(assert (not (= (f 16) (f 31))))
(assert (not (= (f 17) (f 0))))
(assert (not (= (f 17) (f 1))))
(assert (not (= (f 17) (f 2))))
(assert (not (= (f 17) (f 3))))
(assert (not (= (f 17) (f 4))))
(assert (not (= (f 17) (f 5))))
(assert (not (= (f 17) (f 6))))
(assert (not (= (f 17) (f 7))))
(assert (not (= (f 17) (f 8))))
(assert (not (= (f 17) (f 9))))
(assert (not (= (f 17) (f 10))))
(assert (not (= (f 17) (f 11))))
(assert (not (= (f 17) (f 12))))
(assert (not (= (f 17) (f 13))))
(assert (not (= (f 17) (f 14))))
(assert (not (= (f 17) (f 15))))
(assert (not (= (f 17) (f 16))))
(assert (not (= (f 17) (f 18))))
(assert (not (= (f 17) (f 19))))
(assert (not (= (f 17) (f 20))))
(assert (not (= (f 17) (f 21))))
(assert (not (= (f 17) (f 22))))
(assert (not (= (f 17) (f 23))))
(assert (not (= (f 17) (f 24))))
(assert (not (= (f 17) (f 25))))
(assert (not (= (f 17) (f 26))))
(assert (not (= (f 17) (f 27))))
(assert (not (= (f 17) (f 28))))
(assert (not (= (f 17) (f 29))))
(assert (not (= (f 17) (f 30))))
(assert (not (= (f 17) (f 31))))
(assert (not (= (f 18) (f 0))))
(assert (not (= (f 18) (f 1))))
(assert (not (= (f 18) (f 2))))
(assert (not (= (f 18) (f 3))))
(assert (not (= (f 18) (f 4))))
(assert (not (= (f 18) (f 5))))
(assert (not (= (f 18) (f 6))))
(assert (not (= (f 18) (f 7))))
(assert (not (= (f 18) (f 8))))
(assert (not (= (f 18) (f 9))))
(assert (not (= (f 18) (f 10))))
(assert (not (= (f 18) (f 11))))
(assert (not (= (f 18) (f 12))))
(assert (not (= (f 18) (f 13))))
(assert (not (= (f 18) (f 14))))
(assert (not (= (f 18) (f 15))))
(assert (not (= (f 18) (f 16))))
(assert (not (= (f 18) (f 17))))
(assert (not (= (f 18) (f 19))))
(assert (not (= (f 18) (f 20))))
(assert (not (= (f 18) (f 21))))
(assert (not (= (f 18) (f 22))))
(assert (not (= (f 18) (f 23))))
(assert (not (= (f 18) (f 24))))
(assert (not (= (f 18) (f 25))))
(assert (not (= (f 18) (f 26))))
(assert (not (= (f 18) (f 27))))
(assert (not (= (f 18) (f 28))))
(assert (not (= (f 18) (f 29))))
(assert (not (= (f 18) (f 30))))
(assert (not (= (f 18) (f 31))))
(assert (not (= (f 19) (f 0))))
(assert (not (= (f 19) (f 1))))
(assert (not (= (f 19) (f 2))))
(assert (not (= (f 19) (f 3))))
(assert (not (= (f 19) (f 4))))
(assert (not (= (f 19) (f 5))))
(assert (not (= (f 19) (f 6))))
(assert (not (= (f 19) (f 7))))
(assert (not (= (f 19) (f 8))))
(assert (not (= (f 19) (f 9))))
(assert (not (= (f 19) (f 10))))
(assert (not (= (f 19) (f 11))))
(assert (not (= (f 19) (f 12))))
(assert (not (= (f 19) (f 13))))
(assert (not (= (f 19) (f 14))))
(assert (not (= (f 19) (f 15))))
(assert (not (= (f 19) (f 16))))
(assert (not (= (f 19) (f 17))))
(assert (not (= (f 19) (f 18))))
(assert (not (= (f 19) (f 20))))
(assert (not (= (f 19) (f 21))))
(assert (not (= (f 19) (f 22))))
(assert (not (= (f 19) (f 23))))
(assert (not (= (f 19) (f 24))))
(assert (not (= (f 19) (f 25))))
(assert (not (= (f 19) (f 26))))
(assert (not (= (f 19) (f 27))))
(assert (not (= (f 19) (f 28))))
(assert (not (= (f 19) (f 29))))
(assert (not (= (f 19) (f 30))))
(assert (not (= (f 19) (f 31))))
(assert (not (= (f 20) (f 0))))
(assert (not (= (f 20) (f 1))))
(assert (not (= (f 20) (f 2))))
(assert (not (= (f 20) (f 3))))
(assert (not (= (f 20) (f 4))))
(assert (not (= (f 20) (f 5))))
(assert (not (= (f 20) (f 6))))
(assert (not (= (f 20) (f 7))))
(assert (not (= (f 20) (f 8))))
(assert (not (= (f 20) (f 9))))
(assert (not (= (f 20) (f 10))))
(assert (not (= (f 20) (f 11))))
(assert (not (= (f 20) (f 12))))
(assert (not (= (f 20) (f 13))))
(assert (not (= (f 20) (f 14))))
(assert (not (= (f 20) (f 15))))
(assert (not (= (f 20) (f 16))))
(assert (not (= (f 20) (f 17))))
(assert (not (= (f 20) (f 18))))
(assert (not (= (f 20) (f 19))))
(assert (not (= (f 20) (f 21))))
(assert (not (= (f 20) (f 22))))
(assert (not (= (f 20) (f 23))))
(assert (not (= (f 20) (f 24))))
(assert (not (= (f 20) (f 25))))
(assert (not (= (f 20) (f 26))))
(assert (not (= (f 20) (f 27))))
(assert (not (= (f 20) (f 28))))
(assert (not (= (f 20) (f 29))))
(assert (not (= (f 20) (f 30))))
(assert (not (= (f 20) (f 31))))
(assert (not (= (f 21) (f 0))))
(assert (not (= (f 21) (f 1))))
(assert (not (= (f 21) (f 2))))
(assert (not (= (f 21) (f 3))))
(assert (not (= (f 21) (f 4))))
(assert (not (= (f 21) (f 5))))
(assert (not (= (f 21) (f 6))))
(assert (not (= (f 21) (f 7))))
(assert (not (= (f 21) (f 8))))
(assert (not (= (f 21) (f 9))))
(assert (not (= (f 21) (f 10))))
(assert (not (= (f 21) (f 11))))
(assert (not (= (f 21) (f 12))))
(assert (not (= (f 21) (f 13))))
(assert (not (= (f 21) (f 14))))
(assert (not (= (f 21) (f 15))))
(assert (not (= (f 21) (f 16))))
(assert (not (= (f 21) (f 17))))
(assert (not (= (f 21) (f 18))))
(assert (not (= (f 21) (f 19))))
(assert (not (= (f 21) (f 20))))
(assert (not (= (f 21) (f 22))))
(assert (not (= (f 21) (f 23))))
(assert (not (= (f 21) (f 24))))
(assert (not (= (f 21) (f 25))))
(assert (not (= (f 21) (f 26))))
(assert (not (= (f 21) (f 27))))
(assert (not (= (f 21) (f 28))))
(assert (not (= (f 21) (f 29))))
(assert (not (= (f 21) (f 30))))
(assert (not (= (f 21) (f 31))))
(assert (not (= (f 22) (f 0))))
(assert (not (= (f 22) (f 1))))
(assert (not (= (f 22) (f 2))))
(assert (not (= (f 22) (f 3))))
(assert (not (= (f 22) (f 4))))
(assert (not (= (f 22) (f 5))))
(assert (not (= (f 22) (f 6))))
(assert (not (= (f 22) (f 7))))
(assert (not (= (f 22) (f 8))))
(assert (not (= (f 22) (f 9))))
(assert (not (= (f 22) (f 10))))
(assert (not (= (f 22) (f 11))))
(assert (not (= (f 22) (f 12))))
(assert (not (= (f 22) (f 13))))
(assert (not (= (f 22) (f 14))))
(assert (not (= (f 22) (f 15))))
(assert (not (= (f 22) (f 16))))
(assert (not (= (f 22) (f 17))))
(assert (not (= (f 22) (f 18))))
(assert (not (= (f 22) (f 19))))
(assert (not (= (f 22) (f 20))))
(assert (not (= (f 22) (f 21))))
(assert (not (= (f 22) (f 23))))
(assert (not (= (f 22) (f 24))))
(assert (not (= (f 22) (f 25))))
(assert (not (= (f 22) (f 26))))
(assert (not (= (f 22) (f 27))))
(assert (not (= (f 22) (f 28))))
(assert (not (= (f 22) (f 29))))
(assert (not (= (f 22) (f 30))))
(assert (not (= (f 22) (f 31))))
(assert (not (= (f 23) (f 0))))
(assert (not (= (f 23) (f 1))))
(assert (not (= (f 23) (f 2))))
(assert (not (= (f 23) (f 3))))
(assert (not (= (f 23) (f 4))))
(assert (not (= (f 23) (f 5))))
(assert (not (= (f 23) (f 6))))
(assert (not (= (f 23) (f 7))))
(assert (not (= (f 23) (f 8))))
(assert (not (= (f 23) (f 9))))
(assert (not (= (f 23) (f 10))))
(assert (not (= (f 23) (f 11))))
(assert (not (= (f 23) (f 12))))
(assert (not (= (f 23) (f 13))))
(assert (not (= (f 23) (f 14))))
(assert (not (= (f 23) (f 15))))
(assert (not (= (f 23) (f 16))))
(assert (not (= (f 23) (f 17))))
(assert (not (= (f 23) (f 18))))
(assert (not (= (f 23) (f 19))))
(assert (not (= (f 23) (f 20))))
(assert (not (= (f 23) (f 21))))
(assert (not (= (f 23) (f 22))))
(assert (not (= (f 23) (f 24))))
(assert (not (= (f 23) (f 25))))
(assert (not (= (f 23) (f 26))))
(assert (not (= (f 23) (f 27))))
(assert (not (= (f 23) (f 28))))
(assert (not (= (f 23) (f 29))))
(assert (not (= (f 23) (f 30))))
(assert (not (= (f 23) (f 31))))
(assert (not (= (f 24) (f 0))))
(assert (not (= (f 24) (f 1))))
(assert (not (= (f 24) (f 2))))
(assert (not (= (f 24) (f 3))))
(assert (not (= (f 24) (f 4))))
(assert (not (= (f 24) (f 5))))
(assert (not (= (f 24) (f 6))))
(assert (not (= (f 24) (f 7))))
(assert (not (= (f 24) (f 8))))
(assert (not (= (f 24) (f 9))))
(assert (not (= (f 24) (f 10))))
(assert (not (= (f 24) (f 11))))
(assert (not (= (f 24) (f 12))))
(assert (not (= (f 24) (f 13))))
(assert (not (= (f 24) (f 14))))
(assert (not (= (f 24) (f 15))))
(assert (not (= (f 24) (f 16))))
(assert (not (= (f 24) (f 17))))
(assert (not (= (f 24) (f 18))))
(assert (not (= (f 24) (f 19))))
(assert (not (= (f 24) (f 20))))
(assert (not (= (f 24) (f 21))))
(assert (not (= (f 24) (f 22))))
(assert (not (= (f 24) (f 23))))
(assert (not (= (f 24) (f 25))))
(assert (not (= (f 24) (f 26))))
(assert (not (= (f 24) (f 27))))
(assert (not (= (f 24) (f 28))))
(assert (not (= (f 24) (f 29))))
(assert (not (= (f 24) (f 30))))
(assert (not (= (f 24) (f 31))))
(assert (not (= (f 25) (f 0))))
(assert (not (= (f 25) (f 1))))
(assert (not (= (f 25) (f 2))))
(assert (not (= (f 25) (f 3))))
(assert (not (= (f 25) (f 4))))
(assert (not (= (f 25) (f 5))))
(assert (not (= (f 25) (f 6))))
(assert (not (= (f 25) (f 7))))
(assert (not (= (f 25) (f 8))))
(assert (not (= (f 25) (f 9))))
(assert (not (= (f 25) (f 10))))
(assert (not (= (f 25) (f 11))))
(assert (not (= (f 25) (f 12))))
(assert (not (= (f 25) (f 13))))
(assert (not (= (f 25) (f 14))))
(assert (not (= (f 25) (f 15))))
(assert (not (= (f 25) (f 16))))
(assert (not (= (f 25) (f 17))))
(assert (not (= (f 25) (f 18))))
(assert (not (= (f 25) (f 19))))
(assert (not (= (f 25) (f 20))))
(assert (not (= (f 25) (f 21))))
(assert (not (= (f 25) (f 22))))
(assert (not (= (f 25) (f 23))))
(assert (not (= (f 25) (f 24))))
(assert (not (= (f 25) (f 26))))
(assert (not (= (f 25) (f 27))))
(assert (not (= (f 25) (f 28))))
(assert (not (= (f 25) (f 29))))
(assert (not (= (f 25) (f 30))))
(assert (not (= (f 25) (f 31))))
(assert (not (= (f 26) (f 0))))
(assert (not (= (f 26) (f 1))))
(assert (not (= (f 26) (f 2))))
(assert (not (= (f 26) (f 3))))
(assert (not (= (f 26) (f 4))))
(assert (not (= (f 26) (f 5))))
(assert (not (= (f 26) (f 6))))
(assert (not (= (f 26) (f 7))))
(assert (not (= (f 26) (f 8))))
(assert (not (= (f 26) (f 9))))
(assert (not (= (f 26) (f 10))))
(assert (not (= (f 26) (f 11))))
(assert (not (= (f 26) (f 12))))
(assert (not (= (f 26) (f 13))))
(assert (not (= (f 26) (f 14))))
(assert (not (= (f 26) (f 15))))
(assert (not (= (f 26) (f 16))))
(assert (not (= (f 26) (f 17))))
(assert (not (= (f 26) (f 18))))
(assert (not (= (f 26) (f 19))))
(assert (not (= (f 26) (f 20))))
(assert (not (= (f 26) (f 21))))
(assert (not (= (f 26) (f 22))))
(assert (not (= (f 26) (f 23))))
(assert (not (= (f 26) (f 24))))
(assert (not (= (f 26) (f 25))))
(assert (not (= (f 26) (f 27))))
(assert (not (= (f 26) (f 28))))
(assert (not (= (f 26) (f 29))))
(assert (not (= (f 26) (f 30))))
(assert (not (= (f 26) (f 31))))
(assert (not (= (f 27) (f 0))))
(assert (not (= (f 27) (f 1))))
(assert (not (= (f 27) (f 2))))
(assert (not (= (f 27) (f 3))))
(assert (not (= (f 27) (f 4))))
(assert (not (= (f 27) (f 5))))
(assert (not (= (f 27) (f 6))))
(assert (not (= (f 27) (f 7))))
(assert (not (= (f 27) (f 8))))
(assert (not (= (f 27) (f 9))))
(assert (not (= (f 27) (f 10))))
(assert (not (= (f 27) (f 11))))
(assert (not (= (f 27) (f 12))))
(assert (not (= (f 27) (f 13))))
(assert (not (= (f 27) (f 14))))
(assert (not (= (f 27) (f 15))))
(assert (not (= (f 27) (f 16))))
(assert (not (= (f 27) (f 17))))
(assert (not (= (f 27) (f 18))))
(assert (not (= (f 27) (f 19))))
(assert (not (= (f 27) (f 20))))
(assert (not (= (f 27) (f 21))))
(assert (not (= (f 27) (f 22))))
(assert (not (= (f 27) (f 23))))
(assert (not (= (f 27) (f 24))))
(assert (not (= (f 27) (f 25))))
(assert (not (= (f 27) (f 26))))
(assert (not (= (f 27) (f 28))))
(assert (not (= (f 27) (f 29))))
(assert (not (= (f 27) (f 30))))
(assert (not (= (f 27) (f 31))))
(assert (not (= (f 28) (f 0))))
(assert (not (= (f 28) (f 1))))
(assert (not (= (f 28) (f 2))))
(assert (not (= (f 28) (f 3))))
(assert (not (= (f 28) (f 4))))
(assert (not (= (f 28) (f 5))))
(assert (not (= (f 28) (f 6))))
(assert (not (= (f 28) (f 7))))
(assert (not (= (f 28) (f 8))))
(assert (not (= (f 28) (f 9))))
(assert (not (= (f 28) (f 10))))
(assert (not (= (f 28) (f 11))))
(assert (not (= (f 28) (f 12))))
(assert (not (= (f 28) (f 13))))
(assert (not (= (f 28) (f 14))))
(assert (not (= (f 28) (f 15))))
(assert (not (= (f 28) (f 16))))
(assert (not (= (f 28) (f 17))))
(assert (not (= (f 28) (f 18))))
(assert (not (= (f 28) (f 19))))
(assert (not (= (f 28) (f 20))))
(assert (not (= (f 28) (f 21))))
(assert (not (= (f 28) (f 22))))
(assert (not (= (f 28) (f 23))))
(assert (not (= (f 28) (f 24))))
(assert (not (= (f 28) (f 25))))
(assert (not (= (f 28) (f 26))))
(assert (not (= (f 28) (f 27))))
(assert (not (= (f 28) (f 29))))
(assert (not (= (f 28) (f 30))))
(assert (not (= (f 28) (f 31))))
(assert (not (= (f 29) (f 0))))
(assert (not (= (f 29) (f 1))))
(assert (not (= (f 29) (f 2))))
(assert (not (= (f 29) (f 3))))
(assert (not (= (f 29) (f 4))))
(assert (not (= (f 29) (f 5))))
(assert (not (= (f 29) (f 6))))
(assert (not (= (f 29) (f 7))))
(assert (not (= (f 29) (f 8))))
(assert (not (= (f 29) (f 9))))
(assert (not (= (f 29) (f 10))))
(assert (not (= (f 29) (f 11))))
(assert (not (= (f 29) (f 12))))
(assert (not (= (f 29) (f 13))))
(assert (not (= (f 29) (f 14))))
(assert (not (= (f 29) (f 15))))
(assert (not (= (f 29) (f 16))))
(assert (not (= (f 29) (f 17))))
(assert (not (= (f 29) (f 18))))
(assert (not (= (f 29) (f 19))))
(assert (not (= (f 29) (f 20))))
(assert (not (= (f 29) (f 21))))
(assert (not (= (f 29) (f 22))))
(assert (not (= (f 29) (f 23))))
(assert (not (= (f 29) (f 24))))
(assert (not (= (f 29) (f 25))))
(assert (not (= (f 29) (f 26))))
(assert (not (= (f 29) (f 27))))
(assert (not (= (f 29) (f 28))))
(assert (not (= (f 29) (f 30))))
(assert (not (= (f 29) (f 31))))
(assert (not (= (f 30) (f 0))))
(assert (not (= (f 30) (f 1))))
(assert (not (= (f 30) (f 2))))
(assert (not (= (f 30) (f 3))))
(assert (not (= (f 30) (f 4))))
(assert (not (= (f 30) (f 5))))
(assert (not (= (f 30) (f 6))))
(assert (not (= (f 30) (f 7))))
(assert (not (= (f 30) (f 8))))
(assert (not (= (f 30) (f 9))))
(assert (not (= (f 30) (f 10))))
(assert (not (= (f 30) (f 11))))
(assert (not (= (f 30) (f 12))))
(assert (not (= (f 30) (f 13))))
(assert (not (= (f 30) (f 14))))
(assert (not (= (f 30) (f 15))))
(assert (not (= (f 30) (f 16))))
(assert (not (= (f 30) (f 17))))
(assert (not (= (f 30) (f 18))))
(assert (not (= (f 30) (f 19))))
(assert (not (= (f 30) (f 20))))
(assert (not (= (f 30) (f 21))))
(assert (not (= (f 30) (f 22))))
(assert (not (= (f 30) (f 23))))
(assert (not (= (f 30) (f 24))))
(assert (not (= (f 30) (f 25))))
(assert (not (= (f 30) (f 26))))
(assert (not (= (f 30) (f 27))))
(assert (not (= (f 30) (f 28))))
(assert (not (= (f 30) (f 29))))
(assert (not (= (f 30) (f 31))))
(assert (not (= (f 31) (f 0))))
(assert (not (= (f 31) (f 1))))
(assert (not (= (f 31) (f 2))))
(assert (not (= (f 31) (f 3))))
(assert (not (= (f 31) (f 4))))
(assert (not (= (f 31) (f 5))))
(assert (not (= (f 31) (f 6))))
(assert (not (= (f 31) (f 7))))
(assert (not (= (f 31) (f 8))))
(assert (not (= (f 31) (f 9))))
(assert (not (= (f 31) (f 10))))
(assert (not (= (f 31) (f 11))))
(assert (not (= (f 31) (f 12))))
(assert (not (= (f 31) (f 13))))
(assert (not (= (f 31) (f 14))))
(assert (not (= (f 31) (f 15))))
(assert (not (= (f 31) (f 16))))
(assert (not (= (f 31) (f 17))))
(assert (not (= (f 31) (f 18))))
(assert (not (= (f 31) (f 19))))
(assert (not (= (f 31) (f 20))))
(assert (not (= (f 31) (f 21))))
(assert (not (= (f 31) (f 22))))
(assert (not (= (f 31) (f 23))))
(assert (not (= (f 31) (f 24))))
(assert (not (= (f 31) (f 25))))
(assert (not (= (f 31) (f 26))))
(assert (not (= (f 31) (f 27))))
(assert (not (= (f 31) (f 28))))
(assert (not (= (f 31) (f 29))))
(assert (not (= (f 31) (f 30))))
(check-sat)
(get-model)
(get-info :all-statistics)
